\ LP format - for model browsing. Use MPS format to capture full model detail.
Minimize
  0 B18(0) + 0 B20(0) + 0 B26(0) + 0 B28(0) + 0 B32(0) + 0 B36(0) + 0 B38(0)
   + 0 B39(0) + 0 B42(0) + 0 B45(0) + 0 B46(0) + 0 B47(0) + 0 B48(0)
   + 0 B53(0) + 0 B54(0) + 0 B55(0) + 0 B56(0) + 0 B58(0) + 0 B59(0)
   + 0 B63(0) + 0 B64(0) + 0 B65(0) + 0 B67(0) + 0 B68(0) + 0 B72(0)
   + 0 B73(0) + 0 B74(0) + 0 B75(0) + 0 B76(0) + 0 B77(0) + 0 B78(0)
   + 0 B80(0) + 0 B81(0) + 0 B82(0) + 0 B83(0) + 0 B84(0) + 0 B85(0)
   + 0 B86(0) + 0 B88(0) + 0 B90(0) + 0 B91(0) + 0 B92(0) + 0 B93(0)
   + 0 B94(0) + 0 B95(0) + 0 B96(0) + 0 B98(0) + I117(1)
Subject To
 c0: B0(12) + B1(14) = 1
 c1: B2(13) + B3(13) = 1
 c2: B4(8) + B5(14) = 1
 c3: B6(14) + B7(14) = 1
 c4: B8(11) + B9(13) = 1
 c5: B10(8) + B11(14) = 1
 c6: B12(14) + B13(12) = 1
 c7: B14(13) + B15(13) = 1
 c8: B16(8) + B17(14) = 1
 c9: - 1e+06 B0(12) + C99(14) <= 0
 c10: - 1e+06 B1(14) + C100(16) <= 0
 c11: - 1e+06 B2(13) + C101(14) <= 0
 c12: - 1e+06 B3(13) + C102(14) <= 0
 c13: - 1e+06 B4(8) + C103(8) <= 0
 c14: - 1e+06 B5(14) + C104(14) <= 0
 c15: - 1e+06 B6(14) + C105(16) <= 0
 c16: - 1e+06 B7(14) + C106(16) <= 0
 c17: - 1e+06 B8(11) + C107(12) <= 0
 c18: - 1e+06 B9(13) + C108(14) <= 0
 c19: - 1e+06 B10(8) + C109(8) <= 0
 c20: - 1e+06 B11(14) + C110(14) <= 0
 c21: - 1e+06 B12(14) + C111(16) <= 0
 c22: - 1e+06 B13(12) + C112(14) <= 0
 c23: - 1e+06 B14(13) + C113(14) <= 0
 c24: - 1e+06 B15(13) + C114(14) <= 0
 c25: - 1e+06 B16(8) + C115(8) <= 0
 c26: - 1e+06 B17(14) + C116(14) <= 0
 c27: - 1e+06 B1(14) - 1e+06 B3(13) - 1e+06 B19(2) + C100(16) - C102(14)
   >= -2.999768e+06
 c28: - 1e+06 B1(14) - 1e+06 B3(13) + 1e+06 B19(2) - C100(16) + C102(14)
   >= -1.999694e+06
 c29: - 1e+06 B0(12) - 1e+06 B6(14) - 1e+06 B21(4) + C99(14) - C105(16)
   >= -2.999315e+06
 c30: - 1e+06 B0(12) - 1e+06 B6(14) + 1e+06 B21(4) - C99(14) + C105(16)
   >= -1.999452e+06
 c31: - 1e+06 B1(14) - 1e+06 B7(14) - 1e+06 B21(4) + C100(16) - C106(16)
   >= -2.999863e+06
 c32: - 1e+06 B1(14) - 1e+06 B7(14) + 1e+06 B21(4) - C100(16) + C106(16)
   >= -1.999505e+06
 c33: - 1e+06 B1(14) - 1e+06 B9(13) - 1e+06 B22(2) + C100(16) - C108(14)
   >= -2.999805e+06
 c34: - 1e+06 B1(14) - 1e+06 B9(13) + 1e+06 B22(2) - C100(16) + C108(14)
   >= -1.99975e+06
 c35: - 1e+06 B0(12) - 1e+06 B11(14) - 1e+06 B23(2) + C99(14) - C110(14)
   >= -2.999662e+06
 c36: - 1e+06 B0(12) - 1e+06 B11(14) + 1e+06 B23(2) - C99(14) + C110(14)
   >= -1.999603e+06
 c37: - 1e+06 B0(12) - 1e+06 B12(14) - 1e+06 B24(4) + C99(14) - C111(16)
   >= -2.999726e+06
 c38: - 1e+06 B0(12) - 1e+06 B12(14) + 1e+06 B24(4) - C99(14) + C111(16)
   >= -1.999185e+06
 c39: - 1e+06 B1(14) - 1e+06 B13(12) - 1e+06 B24(4) + C100(16) - C112(14)
   >= -2.999642e+06
 c40: - 1e+06 B1(14) - 1e+06 B13(12) + 1e+06 B24(4) - C100(16) + C112(14)
   >= -1.999813e+06
 c41: - 1e+06 B0(12) - 1e+06 B15(13) - 1e+06 B25(2) + C99(14) - C114(14)
   >= -2.99969e+06
 c42: - 1e+06 B0(12) - 1e+06 B15(13) + 1e+06 B25(2) - C99(14) + C114(14)
   >= -1.999366e+06
 c43: - 1e+06 B1(14) - 1e+06 B3(13) - 1e+06 B27(2) - C100(16) + C102(14)
   >= -2.999694e+06
 c44: - 1e+06 B1(14) - 1e+06 B3(13) + 1e+06 B27(2) + C100(16) - C102(14)
   >= -1.999768e+06
 c45: - 1e+06 B2(13) - 1e+06 B5(14) - 1e+06 B29(2) + C101(14) - C104(14)
   >= -2.999723e+06
 c46: - 1e+06 B2(13) - 1e+06 B5(14) + 1e+06 B29(2) - C101(14) + C104(14)
   >= -1.999815e+06
 c47: - 1e+06 B3(13) - 1e+06 B7(14) - 1e+06 B30(2) + C102(14) - C106(16)
   >= -2.999282e+06
 c48: - 1e+06 B3(13) - 1e+06 B7(14) + 1e+06 B30(2) - C102(14) + C106(16)
   >= -1.999388e+06
 c49: - 1e+06 B2(13) - 1e+06 B8(11) - 1e+06 B31(4) + C101(14) - C107(12)
   >= -2.999882e+06
 c50: - 1e+06 B2(13) - 1e+06 B8(11) + 1e+06 B31(4) - C101(14) + C107(12)
   >= -1.999832e+06
 c51: - 1e+06 B3(13) - 1e+06 B9(13) - 1e+06 B31(4) + C102(14) - C108(14)
   >= -2.999636e+06
 c52: - 1e+06 B3(13) - 1e+06 B9(13) + 1e+06 B31(4) - C102(14) + C108(14)
   >= -1.999802e+06
 c53: - 1e+06 B3(13) - 1e+06 B13(12) - 1e+06 B33(2) + C102(14) - C112(14)
   >= -2.99971e+06
 c54: - 1e+06 B3(13) - 1e+06 B13(12) + 1e+06 B33(2) - C102(14) + C112(14)
   >= -1.999785e+06
 c55: - 1e+06 B2(13) - 1e+06 B14(13) - 1e+06 B34(2) + C101(14) - C113(14)
   >= -2.999415e+06
 c56: - 1e+06 B2(13) - 1e+06 B14(13) + 1e+06 B34(2) - C101(14) + C113(14)
   >= -1.999876e+06
 c57: - 1e+06 B2(13) - 1e+06 B17(14) - 1e+06 B35(2) + C101(14) - C116(14)
   >= -2.999846e+06
 c58: - 1e+06 B2(13) - 1e+06 B17(14) + 1e+06 B35(2) - C101(14) + C116(14)
   >= -1.999842e+06
 c59: - 1e+06 B2(13) - 1e+06 B5(14) - 1e+06 B37(2) - C101(14) + C104(14)
   >= -2.999815e+06
 c60: - 1e+06 B2(13) - 1e+06 B5(14) + 1e+06 B37(2) + C101(14) - C104(14)
   >= -1.999723e+06
 c61: - 1e+06 B5(14) - 1e+06 B8(11) - 1e+06 B40(2) + C104(14) - C107(12)
   >= -2.999856e+06
 c62: - 1e+06 B5(14) - 1e+06 B8(11) + 1e+06 B40(2) - C104(14) + C107(12)
   >= -1.999935e+06
 c63: - 1e+06 B4(8) - 1e+06 B10(8) - 1e+06 B41(2) + C103(8) - C109(8)
   >= -2.999946e+06
 c64: - 1e+06 B4(8) - 1e+06 B10(8) + 1e+06 B41(2) - C103(8) + C109(8)
   >= -1.999659e+06
 c65: - 1e+06 B5(14) - 1e+06 B14(13) - 1e+06 B43(2) + C104(14) - C113(14)
   >= -2.999605e+06
 c66: - 1e+06 B5(14) - 1e+06 B14(13) + 1e+06 B43(2) - C104(14) + C113(14)
   >= -1.999825e+06
 c67: - 1e+06 B4(8) - 1e+06 B16(8) - 1e+06 B44(4) + C103(8) - C115(8)
   >= -2.999816e+06
 c68: - 1e+06 B4(8) - 1e+06 B16(8) + 1e+06 B44(4) - C103(8) + C115(8)
   >= -1.999917e+06
 c69: - 1e+06 B5(14) - 1e+06 B17(14) - 1e+06 B44(4) + C104(14) - C116(14)
   >= -2.999758e+06
 c70: - 1e+06 B5(14) - 1e+06 B17(14) + 1e+06 B44(4) - C104(14) + C116(14)
   >= -1.999804e+06
 c71: - 1e+06 B7(14) - 1e+06 B9(13) - 1e+06 B49(2) + C106(16) - C108(14)
   >= -2.999807e+06
 c72: - 1e+06 B7(14) - 1e+06 B9(13) + 1e+06 B49(2) - C106(16) + C108(14)
   >= -1.999712e+06
 c73: - 1e+06 B6(14) - 1e+06 B11(14) - 1e+06 B50(2) + C105(16) - C110(14)
   >= -2.99968e+06
 c74: - 1e+06 B6(14) - 1e+06 B11(14) + 1e+06 B50(2) - C105(16) + C110(14)
   >= -1.999671e+06
 c75: - 1e+06 B6(14) - 1e+06 B12(14) - 1e+06 B51(4) + C105(16) - C111(16)
   >= -2.999883e+06
 c76: - 1e+06 B6(14) - 1e+06 B12(14) + 1e+06 B51(4) - C105(16) + C111(16)
   >= -1.999539e+06
 c77: - 1e+06 B7(14) - 1e+06 B13(12) - 1e+06 B51(4) + C106(16) - C112(14)
   >= -2.999722e+06
 c78: - 1e+06 B7(14) - 1e+06 B13(12) + 1e+06 B51(4) - C106(16) + C112(14)
   >= -1.99984e+06
 c79: - 1e+06 B6(14) - 1e+06 B15(13) - 1e+06 B52(2) + C105(16) - C114(14)
   >= -2.999893e+06
 c80: - 1e+06 B6(14) - 1e+06 B15(13) + 1e+06 B52(2) - C105(16) + C114(14)
   >= -1.999759e+06
 c81: - 1e+06 B7(14) - 1e+06 B9(13) - 1e+06 B57(2) - C106(16) + C108(14)
   >= -2.999712e+06
 c82: - 1e+06 B7(14) - 1e+06 B9(13) + 1e+06 B57(2) + C106(16) - C108(14)
   >= -1.999807e+06
 c83: - 1e+06 B9(13) - 1e+06 B13(12) - 1e+06 B60(2) + C108(14) - C112(14)
   >= -2.999547e+06
 c84: - 1e+06 B9(13) - 1e+06 B13(12) + 1e+06 B60(2) - C108(14) + C112(14)
   >= -1.999441e+06
 c85: - 1e+06 B8(11) - 1e+06 B14(13) - 1e+06 B61(2) + C107(12) - C113(14)
   >= -2.99957e+06
 c86: - 1e+06 B8(11) - 1e+06 B14(13) + 1e+06 B61(2) - C107(12) + C113(14)
   >= -1.999766e+06
 c87: - 1e+06 B8(11) - 1e+06 B17(14) - 1e+06 B62(2) + C107(12) - C116(14)
   >= -2.999753e+06
 c88: - 1e+06 B8(11) - 1e+06 B17(14) + 1e+06 B62(2) - C107(12) + C116(14)
   >= -1.99987e+06
 c89: - 1e+06 B6(14) - 1e+06 B11(14) - 1e+06 B66(2) - C105(16) + C110(14)
   >= -2.999671e+06
 c90: - 1e+06 B6(14) - 1e+06 B11(14) + 1e+06 B66(2) + C105(16) - C110(14)
   >= -1.99968e+06
 c91: - 1e+06 B11(14) - 1e+06 B12(14) - 1e+06 B69(2) + C110(14) - C111(16)
   >= -2.999744e+06
 c92: - 1e+06 B11(14) - 1e+06 B12(14) + 1e+06 B69(2) - C110(14) + C111(16)
   >= -1.999846e+06
 c93: - 1e+06 B11(14) - 1e+06 B15(13) - 1e+06 B70(2) + C110(14) - C114(14)
   >= -2.999668e+06
 c94: - 1e+06 B11(14) - 1e+06 B15(13) + 1e+06 B70(2) - C110(14) + C114(14)
   >= -1.99967e+06
 c95: - 1e+06 B10(8) - 1e+06 B16(8) - 1e+06 B71(2) + C109(8) - C115(8)
   >= -2.999718e+06
 c96: - 1e+06 B10(8) - 1e+06 B16(8) + 1e+06 B71(2) - C109(8) + C115(8)
   >= -1.999838e+06
 c97: - 1e+06 B12(14) - 1e+06 B15(13) - 1e+06 B79(2) + C111(16) - C114(14)
   >= -2.999797e+06
 c98: - 1e+06 B12(14) - 1e+06 B15(13) + 1e+06 B79(2) - C111(16) + C114(14)
   >= -1.99922e+06
 c99: - 1e+06 B12(14) - 1e+06 B15(13) - 1e+06 B87(2) - C111(16) + C114(14)
   >= -2.99922e+06
 c100: - 1e+06 B12(14) - 1e+06 B15(13) + 1e+06 B87(2) + C111(16) - C114(14)
   >= -1.999797e+06
 c101: - 1e+06 B14(13) - 1e+06 B17(14) - 1e+06 B89(2) + C113(14) - C116(14)
   >= -2.999888e+06
 c102: - 1e+06 B14(13) - 1e+06 B17(14) + 1e+06 B89(2) - C113(14) + C116(14)
   >= -1.999822e+06
 c103: - 1e+06 B14(13) - 1e+06 B17(14) - 1e+06 B97(2) - C113(14) + C116(14)
   >= -2.999822e+06
 c104: - 1e+06 B14(13) - 1e+06 B17(14) + 1e+06 B97(2) + C113(14) - C116(14)
   >= -1.999888e+06
 c105: C99(14) >= 0
 c106: C100(16) >= 0
 c107: C101(14) >= 0
 c108: C102(14) >= 0
 c109: C103(8) >= 0
 c110: - 480 B4(8) + C103(8) >= 0
 c111: C104(14) >= 0
 c112: - 480 B5(14) + C104(14) >= 0
 c113: C105(16) >= 0
 c114: C106(16) >= 0
 c115: C107(12) >= 0
 c116: C108(14) >= 0
 c117: C109(8) >= 0
 c118: - 480 B10(8) + C109(8) >= 0
 c119: C110(14) >= 0
 c120: - 480 B11(14) + C110(14) >= 0
 c121: C111(16) >= 0
 c122: C112(14) >= 0
 c123: C113(14) >= 0
 c124: C114(14) >= 0
 c125: C115(8) >= 0
 c126: - 480 B16(8) + C115(8) >= 0
 c127: C116(14) >= 0
 c128: - 480 B17(14) + C116(14) >= 0
 c129: - 30 B2(13) - 40 B3(13) + C99(14) + C100(16) - C101(14) - C102(14)
   >= 0
 c130: - 17 B4(8) - 25 B5(14) + C101(14) + C102(14) - C103(8) - C104(14)
   >= 0
 c131: - 66 B8(11) - 55 B9(13) + C105(16) + C106(16) - C107(12) - C108(14)
   >= 0
 c132: - 30 B10(8) - 50 B11(14) + C107(12) + C108(14) - C109(8) - C110(14)
   >= 0
 c133: - 70 B14(13) - 80 B15(13) + C111(16) + C112(14) - C113(14)
   - C114(14) >= 0
 c134: - 56 B16(8) - 62 B17(14) + C113(14) + C114(14) - C115(8) - C116(14)
   >= 0
 c135: 160 B0(12) + C99(14) - 1e+06 B118(4) >= -999520
 c136: 160 B0(12) + C99(14) - 1e+06 B118(4) <= 480
 c137: 150 B1(14) + C100(16) - 1e+06 B119(4) >= -999520
 c138: 150 B1(14) + C100(16) - 1e+06 B119(4) <= 480
 c139: 65 B6(14) + C105(16) - 1e+06 B120(4) >= -999520
 c140: 65 B6(14) + C105(16) - 1e+06 B120(4) <= 480
 c141: 78 B7(14) + C106(16) - 1e+06 B121(4) >= -999520
 c142: 78 B7(14) + C106(16) - 1e+06 B121(4) <= 480
 c143: 100 B12(14) + C111(16) - 1e+06 B122(4) >= -999520
 c144: 100 B12(14) + C111(16) - 1e+06 B122(4) <= 480
 c145: 90 B13(12) + C112(14) - 1e+06 B123(4) >= -999520
 c146: 90 B13(12) + C112(14) - 1e+06 B123(4) <= 480
 qc0: I117(1) + 320 B118(4) + 330 B119(4) + 415 B120(4) + 402 B121(4)
   + 380 B122(4) + 390 B123(4) + [ - C99(14) * B118(4) - C100(16) * B119(4)
   - C105(16) * B120(4) - C106(16) * B121(4) - C111(16) * B122(4)
   - C112(14) * B123(4) ] >= 0
Bounds
Binaries
 B0(12) B1(14) B2(13) B3(13) B4(8) B5(14) B6(14) B7(14) B8(11) B9(13)
 B10(8) B11(14) B12(14) B13(12) B14(13) B15(13) B16(8) B17(14) B18(0)
 B19(2) B20(0) B21(4) B22(2) B23(2) B24(4) B25(2) B26(0) B27(2) B28(0)
 B29(2) B30(2) B31(4) B32(0) B33(2) B34(2) B35(2) B36(0) B37(2) B38(0)
 B39(0) B40(2) B41(2) B42(0) B43(2) B44(4) B45(0) B46(0) B47(0) B48(0)
 B49(2) B50(2) B51(4) B52(2) B53(0) B54(0) B55(0) B56(0) B57(2) B58(0)
 B59(0) B60(2) B61(2) B62(2) B63(0) B64(0) B65(0) B66(2) B67(0) B68(0)
 B69(2) B70(2) B71(2) B72(0) B73(0) B74(0) B75(0) B76(0) B77(0) B78(0)
 B79(2) B80(0) B81(0) B82(0) B83(0) B84(0) B85(0) B86(0) B87(2) B88(0)
 B89(2) B90(0) B91(0) B92(0) B93(0) B94(0) B95(0) B96(0) B97(2) B98(0)
 B118(4) B119(4) B120(4) B121(4) B122(4) B123(4)
Generals
 I117(1)
End
